p cnf 61 11
-1 -2 -4 -5 -19 -21 -22 -23 -24 -28 -29 -30 -36 -37 -38 -39 -40 -41 -45 -52 -54 -55 -56 -62 -63 -65 -66 -67 -68 -85 -88 0
-2 -4 -5 -6 -18 -37 -38 -46 -47 -55 -60 -63 0
-2 -6 -18 -37 -38 -46 -47 -55 -60 -63 -75 0
-2 -6 -18 -37 -38 -46 -47 -60 -63 -75 -83 -86 0
-3 -4 -5 -6 -18 -31 -32 -34 -35 -38 -42 -44 -46 -48 -49 -51 -53 -54 -57 -59 -60 -61 -69 -70 -71 -72 -73 -83 -84 -86 -87 0
-2 -4 -5 -6 -18 -37 -38 -46 -47 -60 -63 -83 -86 0
-1 -2 -4 -5 -37 -38 -40 -45 -46 -47 -52 -60 -63 -83 -86 0
-1 -2 -4 -5 -37 -38 -40 -45 -46 -47 -49 -51 -52 -60 -61 -71 -83 -86 0
-1 -2 -3 -4 -5 -31 -34 -37 -40 -41 -45 -46 -47 -48 -52 -60 -63 -64 -65 -66 -67 -83 -86 0
-2 -3 -4 -5 -6 -18 -31 -34 -37 -41 -46 -47 -48 -60 -63 -64 -65 -66 -67 -83 -86 0
-1 -2 -3 -4 -5 -31 -32 -34 -35 -40 -41 -42 -44 -45 -46 -47 -48 -49 -51 -52 -60 -61 -64 -65 -66 -67 -69 -70 -71 -72 -73 -83 -84 -86 -87 0
